Graph with 200 nodes and 4000 edges
0 15
0 24
0 26
0 32
0 35
0 47
0 50
0 51
0 64
0 69
0 71
0 72
0 78
0 88
0 96
0 97
0 98
0 99
0 105
0 108
0 111
0 116
0 121
0 123
0 125
0 127
0 129
0 131
0 141
0 142
0 145
0 150
0 151
0 152
0 159
0 163
0 166
0 171
0 172
0 180
0 183
0 185
0 190
1 3
1 7
1 8
1 17
1 19
1 21
1 27
1 32
1 35
1 45
1 51
1 60
1 82
1 87
1 92
1 106
1 107
1 111
1 118
1 130
1 136
1 142
1 152
1 160
1 163
1 167
1 174
1 180
1 194
2 3
2 7
2 20
2 22
2 23
2 25
2 27
2 28
2 35
2 40
2 43
2 47
2 50
2 52
2 63
2 66
2 73
2 74
2 76
2 79
2 82
2 85
2 87
2 90
2 95
2 99
2 105
2 106
2 112
2 116
2 133
2 137
2 138
2 140
2 142
2 146
2 148
2 150
2 163
2 164
2 165
2 169
2 170
2 171
2 173
2 178
2 185
2 187
2 197
3 7
3 9
3 14
3 16
3 21
3 26
3 27
3 29
3 38
3 46
3 52
3 59
3 74
3 76
3 88
3 94
3 96
3 104
3 105
3 119
3 123
3 128
3 133
3 148
3 151
3 152
3 155
3 161
3 163
3 167
3 168
3 170
3 175
3 182
3 185
3 189
3 191
4 8
4 9
4 11
4 16
4 21
4 25
4 33
4 40
4 41
4 43
4 52
4 57
4 58
4 59
4 61
4 68
4 73
4 86
4 97
4 98
4 99
4 100
4 108
4 110
4 111
4 114
4 117
4 127
4 130
4 131
4 133
4 134
4 150
4 153
4 158
4 185
4 188
4 192
4 193
4 198
5 12
5 14
5 15
5 16
5 19
5 30
5 44
5 48
5 57
5 59
5 83
5 90
5 94
5 98
5 100
5 103
5 107
5 114
5 120
5 121
5 122
5 124
5 125
5 128
5 133
5 136
5 140
5 142
5 170
5 173
5 183
5 188
6 7
6 13
6 17
6 23
6 24
6 38
6 55
6 56
6 57
6 59
6 65
6 69
6 76
6 77
6 90
6 92
6 102
6 104
6 126
6 138
6 140
6 142
6 143
6 144
6 145
6 147
6 150
6 160
6 165
6 170
6 178
6 183
6 185
6 188
6 192
6 193
6 197
7 9
7 13
7 20
7 25
7 27
7 33
7 36
7 38
7 43
7 54
7 57
7 60
7 61
7 62
7 64
7 72
7 73
7 79
7 80
7 84
7 86
7 87
7 94
7 99
7 100
7 101
7 110
7 119
7 120
7 121
7 123
7 124
7 130
7 133
7 134
7 140
7 142
7 149
7 156
7 157
7 162
7 164
7 166
7 169
7 170
7 173
7 175
7 178
7 183
7 185
7 186
7 191
7 193
7 195
7 197
8 13
8 17
8 20
8 27
8 40
8 53
8 64
8 67
8 69
8 73
8 76
8 83
8 91
8 97
8 101
8 105
8 112
8 115
8 118
8 128
8 129
8 130
8 133
8 158
8 169
8 170
8 178
8 181
8 183
8 189
8 190
8 191
8 196
9 10
9 13
9 16
9 17
9 21
9 22
9 30
9 35
9 41
9 50
9 51
9 62
9 67
9 79
9 86
9 91
9 95
9 96
9 101
9 102
9 110
9 111
9 121
9 124
9 128
9 129
9 135
9 151
9 154
9 159
9 160
9 162
9 169
9 170
9 173
9 174
9 180
9 182
9 196
10 11
10 15
10 21
10 25
10 28
10 33
10 38
10 49
10 69
10 72
10 74
10 77
10 81
10 84
10 96
10 100
10 101
10 110
10 114
10 115
10 116
10 117
10 141
10 150
10 166
10 175
10 176
10 186
10 189
10 191
10 194
11 12
11 24
11 27
11 29
11 31
11 32
11 33
11 39
11 57
11 63
11 67
11 68
11 70
11 71
11 85
11 99
11 101
11 112
11 115
11 123
11 125
11 129
11 130
11 139
11 142
11 148
11 155
11 156
11 157
11 158
11 162
11 184
11 191
11 195
11 196
11 198
12 13
12 15
12 16
12 40
12 45
12 46
12 51
12 60
12 61
12 67
12 68
12 79
12 86
12 97
12 98
12 105
12 113
12 119
12 120
12 127
12 130
12 131
12 132
12 141
12 142
12 145
12 149
12 150
12 153
12 160
12 161
12 163
12 166
12 177
12 186
12 196
12 199
13 21
13 26
13 27
13 28
13 49
13 50
13 55
13 70
13 74
13 76
13 86
13 87
13 101
13 118
13 130
13 137
13 145
13 149
13 160
13 164
13 169
13 176
13 178
13 182
13 189
13 192
13 193
13 198
14 17
14 18
14 28
14 29
14 32
14 34
14 35
14 37
14 38
14 45
14 48
14 52
14 64
14 65
14 81
14 84
14 91
14 95
14 98
14 100
14 102
14 103
14 104
14 106
14 108
14 122
14 127
14 128
14 131
14 135
14 136
14 144
14 150
14 152
14 153
14 154
14 156
14 162
14 163
14 166
14 167
14 168
14 177
14 182
14 195
14 197
15 18
15 21
15 22
15 24
15 27
15 30
15 31
15 33
15 38
15 41
15 44
15 50
15 54
15 62
15 63
15 73
15 75
15 79
15 81
15 83
15 87
15 90
15 99
15 105
15 114
15 115
15 116
15 117
15 124
15 133
15 135
15 145
15 146
15 148
15 156
15 157
15 158
15 159
15 162
15 166
15 167
15 170
15 175
15 188
15 193
15 195
16 22
16 23
16 29
16 32
16 36
16 37
16 56
16 60
16 66
16 71
16 75
16 82
16 87
16 94
16 97
16 100
16 106
16 107
16 109
16 110
16 111
16 119
16 124
16 127
16 128
16 139
16 144
16 154
16 155
16 158
16 162
16 168
16 171
16 181
16 183
16 188
16 193
16 194
16 197
16 198
16 199
17 18
17 19
17 30
17 33
17 43
17 56
17 61
17 72
17 81
17 87
17 95
17 98
17 104
17 105
17 118
17 134
17 135
17 141
17 146
17 163
17 168
17 170
17 177
17 188
17 191
17 192
17 193
17 195
18 21
18 23
18 25
18 42
18 47
18 55
18 60
18 66
18 68
18 74
18 75
18 76
18 79
18 83
18 84
18 122
18 125
18 128
18 129
18 132
18 133
18 140
18 141
18 147
18 148
18 156
18 160
18 172
18 174
18 178
18 185
18 192
18 199
19 32
19 33
19 35
19 38
19 47
19 55
19 69
19 70
19 72
19 76
19 87
19 89
19 90
19 97
19 103
19 113
19 118
19 121
19 126
19 127
19 130
19 131
19 132
19 134
19 138
19 140
19 159
19 162
19 178
19 179
19 183
19 189
20 26
20 27
20 31
20 34
20 37
20 42
20 51
20 54
20 55
20 56
20 58
20 76
20 77
20 80
20 81
20 89
20 95
20 96
20 103
20 108
20 113
20 116
20 118
20 126
20 127
20 128
20 130
20 141
20 152
20 157
20 159
20 162
20 174
20 178
20 179
20 180
20 181
20 191
20 195
20 199
21 25
21 32
21 33
21 47
21 51
21 56
21 63
21 66
21 71
21 73
21 75
21 77
21 82
21 88
21 92
21 96
21 105
21 108
21 111
21 112
21 113
21 114
21 130
21 139
21 141
21 143
21 146
21 148
21 158
21 160
21 161
21 175
21 186
21 188
21 189
21 192
21 194
22 26
22 28
22 31
22 35
22 36
22 44
22 51
22 73
22 74
22 80
22 83
22 85
22 92
22 103
22 105
22 106
22 115
22 119
22 123
22 132
22 135
22 137
22 142
22 149
22 157
22 162
22 163
22 166
22 171
22 176
22 178
22 189
23 26
23 32
23 35
23 43
23 45
23 48
23 49
23 62
23 67
23 88
23 94
23 97
23 100
23 102
23 124
23 134
23 135
23 141
23 144
23 148
23 156
23 157
23 158
23 164
23 167
23 170
23 173
23 174
23 180
23 182
23 192
23 193
24 38
24 41
24 42
24 50
24 52
24 67
24 69
24 74
24 76
24 93
24 98
24 102
24 105
24 110
24 114
24 118
24 125
24 132
24 146
24 150
24 154
24 160
24 166
24 167
24 171
24 179
24 186
24 193
24 196
24 197
25 28
25 32
25 33
25 36
25 37
25 42
25 43
25 64
25 66
25 69
25 76
25 78
25 80
25 81
25 83
25 93
25 103
25 105
25 107
25 110
25 111
25 113
25 116
25 118
25 122
25 123
25 126
25 132
25 135
25 138
25 149
25 154
25 158
25 161
25 171
25 185
25 186
25 193
25 195
25 196
26 31
26 36
26 38
26 50
26 52
26 62
26 67
26 70
26 73
26 82
26 89
26 91
26 93
26 94
26 100
26 121
26 125
26 126
26 128
26 133
26 135
26 136
26 138
26 142
26 146
26 149
26 150
26 151
26 164
26 170
26 174
26 175
26 176
26 180
26 188
26 189
26 191
26 194
27 31
27 52
27 55
27 57
27 63
27 64
27 66
27 67
27 72
27 79
27 81
27 96
27 100
27 103
27 111
27 127
27 129
27 130
27 146
27 155
27 173
27 182
27 194
28 32
28 35
28 39
28 44
28 61
28 63
28 77
28 81
28 82
28 83
28 93
28 97
28 99
28 100
28 104
28 107
28 113
28 114
28 117
28 120
28 122
28 128
28 130
28 138
28 139
28 141
28 144
28 165
28 170
28 178
28 182
28 191
28 194
29 46
29 47
29 50
29 53
29 55
29 66
29 68
29 75
29 85
29 86
29 92
29 94
29 98
29 100
29 103
29 105
29 113
29 121
29 126
29 135
29 139
29 142
29 143
29 144
29 146
29 156
29 161
29 163
29 169
29 171
29 175
29 177
29 188
29 190
29 194
30 32
30 35
30 38
30 39
30 40
30 41
30 48
30 51
30 56
30 60
30 64
30 65
30 74
30 77
30 78
30 90
30 92
30 102
30 107
30 108
30 113
30 118
30 122
30 130
30 139
30 143
30 145
30 147
30 154
30 159
30 160
30 161
30 182
30 186
30 196
30 199
31 34
31 41
31 43
31 45
31 48
31 49
31 53
31 56
31 58
31 69
31 75
31 79
31 83
31 85
31 87
31 90
31 103
31 106
31 117
31 123
31 130
31 137
31 140
31 141
31 160
31 166
31 168
31 169
31 179
31 188
31 190
31 191
31 196
32 33
32 34
32 35
32 38
32 39
32 45
32 48
32 51
32 55
32 64
32 66
32 73
32 86
32 90
32 91
32 102
32 103
32 113
32 118
32 122
32 123
32 143
32 146
32 156
32 159
32 163
32 166
32 174
32 175
32 189
32 190
32 192
32 195
32 199
33 36
33 39
33 41
33 45
33 46
33 53
33 63
33 64
33 67
33 70
33 73
33 74
33 84
33 88
33 94
33 97
33 102
33 119
33 130
33 142
33 144
33 145
33 150
33 157
33 163
33 165
33 175
33 178
33 180
33 181
33 183
33 186
33 192
33 194
33 195
33 198
34 40
34 43
34 45
34 48
34 49
34 50
34 51
34 53
34 57
34 65
34 66
34 68
34 73
34 76
34 78
34 81
34 96
34 99
34 100
34 113
34 120
34 124
34 127
34 131
34 140
34 145
34 147
34 156
34 159
34 162
34 165
34 167
34 172
34 174
34 176
34 184
34 186
34 187
34 191
34 195
34 198
35 38
35 39
35 43
35 45
35 46
35 47
35 49
35 52
35 66
35 75
35 77
35 78
35 88
35 98
35 100
35 105
35 116
35 122
35 126
35 129
35 132
35 135
35 138
35 146
35 148
35 152
35 158
35 161
35 166
35 172
35 174
35 178
35 188
35 194
35 199
36 42
36 43
36 49
36 50
36 56
36 66
36 74
36 76
36 83
36 85
36 90
36 95
36 99
36 103
36 114
36 115
36 120
36 124
36 134
36 135
36 138
36 141
36 142
36 143
36 155
36 162
36 163
36 164
36 168
36 177
36 182
36 184
36 185
36 192
37 43
37 48
37 52
37 54
37 63
37 66
37 67
37 71
37 72
37 89
37 90
37 91
37 97
37 101
37 105
37 108
37 112
37 115
37 126
37 136
37 142
37 144
37 152
37 153
37 154
37 162
37 167
37 168
37 184
37 194
37 196
37 197
38 39
38 45
38 58
38 64
38 66
38 73
38 84
38 89
38 95
38 96
38 107
38 109
38 124
38 130
38 133
38 147
38 148
38 154
38 155
38 158
38 161
38 166
38 176
38 179
38 189
38 192
38 195
39 42
39 43
39 49
39 52
39 55
39 58
39 60
39 61
39 62
39 66
39 73
39 79
39 80
39 82
39 85
39 86
39 87
39 92
39 96
39 97
39 100
39 103
39 106
39 107
39 109
39 114
39 120
39 126
39 127
39 132
39 133
39 149
39 159
39 160
39 169
39 170
39 176
39 195
39 198
40 47
40 53
40 56
40 60
40 65
40 68
40 83
40 84
40 85
40 92
40 94
40 98
40 101
40 109
40 115
40 125
40 128
40 130
40 145
40 153
40 156
40 167
40 177
40 184
40 187
40 196
40 198
41 42
41 43
41 45
41 65
41 69
41 78
41 97
41 98
41 100
41 104
41 106
41 111
41 119
41 128
41 130
41 134
41 153
41 155
41 156
41 159
41 167
41 176
41 179
41 188
41 193
42 43
42 44
42 45
42 47
42 52
42 72
42 73
42 76
42 77
42 78
42 79
42 84
42 85
42 98
42 99
42 116
42 117
42 119
42 137
42 140
42 144
42 146
42 150
42 164
42 173
42 174
42 177
42 179
42 181
42 188
42 190
43 46
43 53
43 58
43 62
43 65
43 69
43 70
43 76
43 78
43 79
43 82
43 84
43 96
43 97
43 102
43 104
43 117
43 124
43 128
43 136
43 140
43 144
43 145
43 146
43 155
43 165
43 167
43 182
43 183
43 185
43 187
43 189
43 192
44 48
44 60
44 61
44 63
44 68
44 71
44 72
44 76
44 77
44 82
44 83
44 84
44 87
44 88
44 89
44 97
44 109
44 115
44 119
44 125
44 141
44 142
44 143
44 147
44 148
44 149
44 150
44 168
44 170
44 176
44 178
44 187
45 48
45 49
45 54
45 62
45 63
45 64
45 83
45 88
45 90
45 98
45 99
45 100
45 101
45 110
45 116
45 121
45 130
45 132
45 135
45 137
45 138
45 139
45 140
45 147
45 148
45 151
45 168
45 169
45 170
45 174
45 175
45 178
45 186
45 188
45 199
46 47
46 54
46 55
46 63
46 65
46 67
46 71
46 75
46 78
46 93
46 100
46 102
46 104
46 108
46 112
46 119
46 137
46 141
46 151
46 153
46 155
46 156
46 167
46 168
46 172
46 186
46 190
47 67
47 69
47 74
47 76
47 78
47 82
47 87
47 88
47 92
47 93
47 94
47 110
47 111
47 113
47 129
47 132
47 133
47 144
47 148
47 152
47 156
47 158
47 166
47 180
47 183
47 185
47 191
48 54
48 56
48 60
48 61
48 66
48 68
48 79
48 82
48 86
48 87
48 90
48 91
48 93
48 94
48 98
48 128
48 130
48 136
48 142
48 148
48 163
48 164
48 165
48 167
48 173
48 176
48 181
48 182
48 190
48 193
48 197
48 199
49 67
49 78
49 79
49 84
49 86
49 92
49 96
49 100
49 105
49 112
49 115
49 116
49 118
49 120
49 126
49 131
49 138
49 139
49 144
49 148
49 153
49 155
49 158
49 159
49 160
49 166
49 169
49 170
49 175
49 176
49 179
49 185
49 196
49 198
50 55
50 58
50 65
50 73
50 78
50 81
50 82
50 83
50 88
50 89
50 90
50 92
50 103
50 108
50 111
50 126
50 132
50 133
50 140
50 141
50 142
50 151
50 152
50 159
50 161
50 184
50 186
50 191
50 196
51 55
51 57
51 58
51 64
51 68
51 74
51 76
51 77
51 78
51 79
51 89
51 91
51 95
51 99
51 103
51 117
51 118
51 119
51 120
51 122
51 126
51 138
51 140
51 141
51 163
51 166
51 167
51 168
51 172
51 180
51 185
51 192
51 195
51 197
52 57
52 64
52 68
52 79
52 80
52 86
52 91
52 93
52 96
52 99
52 101
52 102
52 108
52 129
52 137
52 154
52 158
52 169
52 171
52 172
52 178
52 187
52 190
52 191
52 192
52 194
52 197
53 55
53 56
53 57
53 58
53 74
53 75
53 84
53 85
53 88
53 96
53 100
53 102
53 104
53 110
53 114
53 116
53 124
53 129
53 135
53 141
53 144
53 147
53 148
53 153
53 158
53 163
53 164
53 175
53 181
53 183
53 184
54 59
54 79
54 80
54 86
54 93
54 96
54 102
54 105
54 108
54 113
54 116
54 121
54 122
54 127
54 132
54 135
54 138
54 142
54 143
54 146
54 150
54 153
54 155
54 158
54 160
54 166
54 168
54 169
54 174
54 175
54 178
54 192
54 194
54 196
55 60
55 75
55 77
55 87
55 89
55 104
55 111
55 117
55 120
55 128
55 130
55 142
55 151
55 152
55 158
55 159
55 164
55 171
55 173
55 176
55 185
55 192
55 195
56 62
56 76
56 79
56 81
56 83
56 86
56 88
56 91
56 98
56 103
56 106
56 109
56 137
56 140
56 147
56 148
56 154
56 156
56 169
56 177
56 178
56 179
56 180
56 181
57 59
57 64
57 68
57 70
57 73
57 78
57 82
57 85
57 88
57 90
57 92
57 93
57 94
57 96
57 99
57 107
57 111
57 120
57 125
57 137
57 150
57 153
57 154
57 159
57 160
57 162
57 164
57 174
57 176
57 182
57 184
57 189
57 197
57 198
58 60
58 73
58 75
58 76
58 77
58 82
58 84
58 91
58 104
58 117
58 118
58 120
58 123
58 136
58 142
58 152
58 160
58 162
58 167
58 168
58 176
58 187
58 189
58 196
58 197
58 198
59 61
59 66
59 67
59 77
59 91
59 95
59 99
59 122
59 125
59 131
59 132
59 136
59 141
59 144
59 145
59 146
59 149
59 169
59 171
59 177
59 178
59 182
59 183
59 184
59 185
59 191
59 193
59 199
60 70
60 82
60 87
60 90
60 92
60 98
60 117
60 122
60 123
60 125
60 141
60 143
60 149
60 152
60 156
60 163
60 166
60 169
60 171
60 172
60 181
60 186
60 187
60 188
60 195
61 66
61 75
61 81
61 84
61 101
61 102
61 103
61 105
61 112
61 113
61 122
61 125
61 131
61 132
61 133
61 140
61 144
61 145
61 147
61 159
61 164
61 171
61 177
61 179
61 180
61 186
61 188
61 193
61 196
61 197
62 64
62 65
62 69
62 72
62 74
62 81
62 90
62 96
62 105
62 111
62 112
62 120
62 121
62 123
62 126
62 128
62 131
62 134
62 137
62 139
62 142
62 143
62 144
62 157
62 168
62 174
62 175
62 176
62 177
62 178
62 180
62 182
62 185
62 192
62 195
63 85
63 86
63 88
63 92
63 93
63 97
63 98
63 100
63 102
63 107
63 111
63 112
63 118
63 120
63 123
63 124
63 125
63 130
63 138
63 147
63 148
63 175
63 178
63 180
63 188
63 190
63 194
63 195
64 65
64 80
64 81
64 84
64 92
64 94
64 97
64 101
64 105
64 109
64 119
64 123
64 128
64 130
64 132
64 133
64 135
64 137
64 140
64 149
64 153
64 159
64 163
64 168
64 170
64 174
64 187
64 194
65 75
65 78
65 86
65 87
65 90
65 94
65 100
65 107
65 108
65 113
65 116
65 119
65 125
65 127
65 132
65 142
65 156
65 161
65 164
65 165
65 168
65 169
65 171
65 173
65 174
65 191
65 196
65 197
66 67
66 77
66 86
66 89
66 91
66 102
66 104
66 109
66 124
66 129
66 131
66 134
66 135
66 138
66 143
66 149
66 157
66 163
66 174
66 176
66 177
66 190
66 199
67 70
67 80
67 84
67 85
67 97
67 98
67 103
67 104
67 110
67 131
67 132
67 134
67 141
67 144
67 149
67 151
67 157
67 163
67 171
67 178
67 190
67 191
67 194
68 72
68 74
68 75
68 76
68 78
68 79
68 81
68 84
68 85
68 88
68 92
68 94
68 97
68 99
68 102
68 105
68 118
68 120
68 122
68 123
68 127
68 135
68 141
68 148
68 163
68 178
68 185
68 187
68 190
68 191
68 194
68 196
68 198
69 72
69 75
69 76
69 83
69 84
69 85
69 89
69 92
69 97
69 100
69 104
69 105
69 113
69 120
69 127
69 133
69 139
69 140
69 150
69 151
69 152
69 153
69 157
69 163
69 164
69 170
69 173
69 187
69 198
70 80
70 86
70 89
70 91
70 92
70 98
70 100
70 102
70 106
70 107
70 109
70 120
70 123
70 125
70 141
70 150
70 152
70 161
70 163
70 164
70 177
70 182
70 184
70 197
71 73
71 79
71 84
71 86
71 87
71 88
71 90
71 92
71 93
71 97
71 113
71 114
71 115
71 117
71 129
71 130
71 133
71 138
71 139
71 144
71 147
71 150
71 151
71 153
71 155
71 165
71 173
71 181
71 188
71 189
71 193
71 198
72 78
72 83
72 86
72 88
72 89
72 92
72 95
72 96
72 114
72 121
72 126
72 127
72 133
72 134
72 140
72 146
72 147
72 149
72 150
72 158
72 162
72 170
72 173
72 196
72 197
73 74
73 92
73 93
73 100
73 110
73 114
73 116
73 119
73 124
73 129
73 132
73 133
73 142
73 146
73 156
73 158
73 161
73 171
73 173
73 174
73 175
73 186
73 189
73 191
73 199
74 75
74 77
74 79
74 82
74 84
74 98
74 102
74 104
74 108
74 113
74 114
74 120
74 122
74 139
74 145
74 146
74 148
74 151
74 160
74 168
74 172
74 176
74 177
74 181
74 184
74 186
74 197
75 79
75 87
75 89
75 105
75 110
75 115
75 116
75 120
75 125
75 129
75 131
75 132
75 138
75 140
75 141
75 142
75 143
75 146
75 147
75 150
75 160
75 164
75 166
75 172
75 177
75 178
75 184
75 189
75 191
75 196
75 197
76 79
76 84
76 92
76 108
76 114
76 130
76 141
76 142
76 144
76 146
76 152
76 155
76 156
76 162
76 170
76 180
76 195
76 197
76 199
77 91
77 94
77 102
77 103
77 105
77 106
77 108
77 138
77 144
77 149
77 157
77 158
77 168
77 171
77 179
77 183
77 190
77 191
78 83
78 85
78 88
78 97
78 106
78 110
78 115
78 118
78 124
78 127
78 128
78 131
78 137
78 141
78 143
78 144
78 148
78 152
78 165
78 168
78 170
78 186
78 191
78 197
78 199
79 81
79 100
79 105
79 111
79 112
79 113
79 122
79 134
79 135
79 140
79 141
79 146
79 148
79 149
79 152
79 156
79 168
79 175
79 180
79 182
79 187
79 188
79 193
79 195
79 196
79 199
80 85
80 89
80 96
80 97
80 103
80 105
80 106
80 108
80 121
80 132
80 135
80 140
80 143
80 157
80 158
80 170
80 173
80 179
80 181
80 184
80 186
80 189
80 192
80 193
80 198
80 199
81 85
81 111
81 115
81 116
81 135
81 137
81 139
81 140
81 141
81 145
81 147
81 152
81 153
81 160
81 170
81 174
81 182
81 189
81 194
81 196
82 84
82 89
82 98
82 102
82 104
82 110
82 118
82 123
82 127
82 129
82 130
82 138
82 143
82 145
82 153
82 154
82 169
82 171
82 175
82 177
82 183
82 185
82 188
82 192
82 194
83 84
83 85
83 86
83 88
83 91
83 113
83 119
83 125
83 126
83 142
83 145
83 147
83 153
83 156
83 171
83 174
83 175
83 177
83 183
83 188
83 191
83 193
84 93
84 94
84 98
84 101
84 117
84 121
84 125
84 133
84 149
84 163
84 169
84 184
84 188
84 191
84 196
85 86
85 90
85 95
85 98
85 100
85 101
85 110
85 113
85 116
85 126
85 129
85 134
85 136
85 143
85 147
85 151
85 153
85 154
85 156
85 158
85 162
85 168
85 170
85 174
85 175
85 178
85 180
85 196
86 93
86 98
86 101
86 106
86 112
86 113
86 114
86 117
86 119
86 120
86 121
86 127
86 128
86 129
86 133
86 134
86 137
86 145
86 146
86 149
86 151
86 154
86 161
86 163
86 177
86 180
86 181
86 185
86 186
86 188
86 194
86 198
87 99
87 103
87 110
87 115
87 122
87 129
87 131
87 132
87 133
87 138
87 141
87 149
87 151
87 154
87 158
87 163
87 164
87 174
87 180
87 185
87 189
88 93
88 100
88 110
88 111
88 112
88 115
88 119
88 125
88 128
88 129
88 131
88 133
88 136
88 144
88 145
88 159
88 162
88 163
88 166
88 171
88 185
88 193
88 195
89 92
89 95
89 98
89 102
89 110
89 111
89 115
89 122
89 123
89 125
89 128
89 134
89 144
89 145
89 147
89 154
89 161
89 165
89 166
89 173
89 175
89 180
89 182
89 183
89 185
89 190
89 198
89 199
90 92
90 104
90 107
90 112
90 115
90 117
90 122
90 134
90 143
90 146
90 151
90 153
90 156
90 160
90 161
90 162
90 166
90 171
90 182
91 93
91 100
91 105
91 106
91 109
91 110
91 116
91 118
91 119
91 131
91 135
91 141
91 143
91 145
91 153
91 160
91 165
91 184
91 187
91 197
92 99
92 100
92 119
92 127
92 131
92 140
92 143
92 149
92 154
92 157
92 167
92 169
92 170
92 185
92 186
92 191
92 194
93 94
93 98
93 101
93 118
93 122
93 123
93 126
93 132
93 134
93 136
93 144
93 146
93 147
93 157
93 159
93 160
93 162
93 177
93 180
93 186
93 195
93 197
94 98
94 101
94 104
94 106
94 111
94 114
94 116
94 119
94 127
94 132
94 137
94 142
94 144
94 152
94 154
94 156
94 160
94 163
94 164
94 165
94 176
94 178
94 182
94 187
94 191
94 193
95 102
95 106
95 107
95 113
95 117
95 121
95 125
95 129
95 138
95 142
95 148
95 150
95 163
95 173
95 186
96 107
96 112
96 116
96 120
96 126
96 129
96 130
96 131
96 133
96 141
96 166
96 169
96 173
96 175
96 176
96 177
96 178
96 180
96 181
96 184
96 186
96 193
96 194
96 195
97 99
97 103
97 114
97 118
97 134
97 138
97 144
97 145
97 150
97 157
97 160
97 170
97 173
97 174
97 178
97 182
97 191
97 193
97 195
97 196
97 197
98 101
98 109
98 116
98 119
98 124
98 126
98 127
98 136
98 137
98 141
98 147
98 150
98 155
98 167
98 170
98 172
99 106
99 113
99 116
99 130
99 134
99 137
99 139
99 141
99 143
99 145
99 148
99 149
99 151
99 152
99 161
99 165
99 170
99 179
99 192
99 193
100 104
100 106
100 107
100 115
100 118
100 119
100 121
100 122
100 133
100 139
100 140
100 142
100 143
100 144
100 145
100 151
100 167
100 177
100 180
100 185
100 187
100 189
100 192
100 193
100 197
101 105
101 107
101 116
101 119
101 120
101 124
101 127
101 128
101 134
101 136
101 143
101 149
101 153
101 154
101 158
101 160
101 168
101 171
101 181
101 189
101 190
101 191
101 192
101 194
101 198
102 108
102 109
102 114
102 117
102 118
102 124
102 125
102 137
102 139
102 147
102 151
102 156
102 158
102 160
102 165
102 168
102 175
102 184
102 188
102 192
102 197
102 198
103 104
103 105
103 109
103 113
103 117
103 130
103 131
103 135
103 151
103 160
103 166
103 176
103 179
103 183
103 185
103 189
103 195
104 105
104 118
104 119
104 124
104 131
104 132
104 136
104 141
104 147
104 149
104 158
104 171
104 174
104 177
104 184
104 187
105 107
105 119
105 120
105 122
105 128
105 129
105 137
105 160
105 162
105 173
105 175
105 180
105 183
105 187
105 188
105 193
105 195
105 197
106 109
106 111
106 113
106 114
106 120
106 121
106 128
106 137
106 139
106 147
106 159
106 163
106 164
106 173
106 176
106 177
106 181
106 184
106 191
106 195
106 199
107 108
107 110
107 115
107 118
107 125
107 130
107 136
107 140
107 141
107 143
107 145
107 147
107 149
107 153
107 155
107 156
107 158
107 168
107 172
107 177
107 178
107 180
107 187
107 195
107 198
108 109
108 132
108 133
108 150
108 155
108 160
108 163
108 165
108 184
108 186
108 187
108 199
109 127
109 133
109 137
109 145
109 152
109 178
109 187
109 193
109 197
110 114
110 116
110 117
110 123
110 124
110 127
110 138
110 140
110 144
110 145
110 153
110 161
110 167
110 168
110 172
110 174
110 186
110 195
111 116
111 119
111 121
111 134
111 138
111 143
111 146
111 152
111 158
111 160
111 161
111 166
111 167
111 173
111 174
111 175
111 176
111 189
111 194
111 195
112 113
112 115
112 117
112 121
112 125
112 126
112 143
112 149
112 150
112 152
112 153
112 155
112 157
112 166
112 167
112 168
112 173
112 184
112 185
112 189
112 191
112 194
112 195
113 123
113 125
113 129
113 131
113 134
113 135
113 138
113 147
113 153
113 156
113 160
113 173
113 175
113 182
113 184
113 188
113 189
113 193
113 195
114 125
114 138
114 150
114 162
114 170
114 172
114 174
114 183
114 184
114 190
114 196
114 197
115 118
115 128
115 131
115 134
115 138
115 150
115 151
115 152
115 161
115 166
115 168
115 172
115 177
115 188
115 190
115 191
116 120
116 123
116 124
116 131
116 144
116 145
116 152
116 153
116 154
116 163
116 179
116 181
116 187
116 193
116 198
116 199
117 118
117 122
117 125
117 128
117 135
117 139
117 149
117 151
117 152
117 161
117 162
117 163
117 170
117 187
117 189
117 198
118 125
118 129
118 137
118 138
118 145
118 146
118 153
118 156
118 162
118 163
118 165
118 179
118 181
118 182
118 183
118 197
119 135
119 145
119 146
119 153
119 155
119 167
119 176
119 181
119 182
119 183
119 185
119 186
119 187
119 191
120 123
120 126
120 133
120 135
120 136
120 138
120 139
120 141
120 146
120 150
120 163
120 176
120 178
120 184
120 186
120 187
120 188
120 195
121 127
121 135
121 137
121 139
121 140
121 145
121 154
121 156
121 161
121 162
121 168
121 170
121 171
121 178
121 181
121 190
121 196
121 197
122 126
122 132
122 139
122 150
122 152
122 156
122 158
122 160
122 164
122 169
122 172
122 178
122 186
122 193
123 126
123 127
123 137
123 147
123 152
123 159
123 172
123 175
123 176
123 177
123 178
123 180
123 182
123 190
123 193
123 194
123 195
123 198
124 129
124 133
124 135
124 138
124 142
124 146
124 149
124 155
124 156
124 169
124 176
124 177
124 188
125 154
125 158
125 162
125 175
125 177
125 180
125 182
125 187
125 191
125 198
125 199
126 128
126 133
126 138
126 141
126 142
126 143
126 151
126 156
126 157
126 160
126 161
126 162
126 164
126 173
126 174
126 195
126 198
126 199
127 134
127 135
127 141
127 148
127 151
127 155
127 156
127 164
127 166
127 172
127 177
127 179
127 181
127 182
127 191
127 198
127 199
128 129
128 130
128 131
128 134
128 148
128 151
128 156
128 161
128 163
128 164
128 176
128 179
128 180
128 186
128 192
129 135
129 138
129 146
129 151
129 152
129 158
129 162
129 164
129 165
129 171
129 173
129 176
129 192
129 195
129 197
130 132
130 133
130 143
130 145
130 147
130 148
130 152
130 156
130 160
130 162
130 169
130 177
130 178
130 180
130 182
130 184
130 186
131 132
131 138
131 140
131 146
131 149
131 152
131 156
131 168
131 169
131 177
131 178
131 188
131 190
131 191
131 195
131 198
131 199
132 134
132 136
132 139
132 141
132 150
132 151
132 153
132 156
132 165
132 166
132 168
132 173
132 177
132 178
132 180
132 182
132 189
132 192
132 196
132 197
133 137
133 140
133 157
133 164
133 169
133 170
133 171
133 177
133 193
134 136
134 137
134 149
134 154
134 155
134 165
134 166
134 173
134 175
134 177
134 185
134 193
135 138
135 148
135 156
135 157
135 162
135 163
135 175
135 184
135 194
135 196
136 138
136 139
136 141
136 142
136 145
136 146
136 149
136 150
136 153
136 155
136 166
136 167
136 168
136 176
136 177
136 190
136 195
136 199
137 147
137 153
137 156
137 165
137 166
137 167
137 168
137 170
137 178
137 188
137 193
137 199
138 144
138 148
138 150
138 152
138 154
138 155
138 156
138 158
138 163
138 165
138 167
138 168
138 169
138 171
138 174
138 181
138 182
138 183
138 185
138 187
138 189
138 195
139 141
139 143
139 151
139 155
139 158
139 160
139 162
139 170
139 175
139 188
140 144
140 146
140 150
140 151
140 160
140 170
140 174
140 175
140 182
140 194
141 148
141 149
141 156
141 160
141 164
141 166
141 167
141 171
141 172
141 182
141 188
141 189
142 143
142 144
142 148
142 153
142 154
142 155
142 161
142 182
142 183
143 150
143 151
143 156
143 158
143 160
143 161
143 164
143 183
143 189
143 192
143 195
143 196
144 150
144 156
144 162
144 165
144 178
144 180
144 190
144 191
144 192
144 193
145 147
145 149
145 150
145 153
145 154
145 162
145 163
145 164
145 179
145 181
145 189
145 193
145 198
146 148
146 157
146 161
146 163
146 169
146 179
146 187
146 192
147 150
147 152
147 157
147 159
147 163
147 168
147 170
147 176
147 177
147 181
147 182
147 183
147 186
147 194
148 171
148 176
148 183
148 184
148 192
149 152
149 155
149 157
149 165
149 172
149 177
149 178
149 180
149 184
149 188
149 192
149 193
150 153
150 154
150 155
150 160
150 170
150 172
150 174
150 181
150 182
150 190
150 191
150 194
150 197
150 198
151 154
151 169
151 175
151 192
151 195
151 199
152 159
152 163
152 164
152 168
152 171
152 176
152 178
152 186
152 187
152 190
152 191
152 192
152 194
152 197
153 164
153 172
153 173
153 177
153 189
153 190
153 192
153 198
154 167
154 180
154 186
155 168
155 171
155 172
155 175
155 181
155 186
155 191
155 199
156 168
156 170
156 174
156 189
156 192
157 169
157 174
157 179
157 183
157 190
157 194
158 160
158 163
158 168
158 170
158 177
158 179
158 183
158 196
159 166
159 174
159 176
159 178
159 193
159 196
160 164
160 179
160 189
160 198
161 165
161 167
161 168
161 173
161 183
161 186
161 190
161 196
162 176
162 184
162 192
162 194
162 195
162 197
163 164
163 171
163 176
163 182
163 183
163 186
163 191
163 195
164 167
164 187
164 190
164 192
164 195
165 166
165 169
165 177
165 179
165 187
165 195
165 196
166 168
166 170
166 178
166 188
166 191
166 192
166 195
166 199
167 175
167 176
167 184
167 194
168 170
168 174
168 188
169 171
169 178
169 179
169 197
170 175
170 177
170 180
170 181
170 194
170 199
171 176
171 180
171 190
172 173
172 175
172 180
172 192
172 193
172 194
173 186
173 192
173 194
173 195
174 175
174 176
174 177
174 183
174 184
174 186
174 189
175 176
175 179
175 182
176 182
176 183
176 187
176 195
176 196
176 199
177 179
177 181
177 186
177 187
177 191
177 192
177 198
177 199
178 179
178 196
178 197
179 184
179 186
179 187
179 193
179 196
179 198
180 183
180 185
180 187
180 188
180 192
180 193
181 185
181 193
181 197
182 183
182 188
182 191
183 188
183 197
185 187
185 189
185 190
185 197
185 199
186 191
186 193
186 196
187 188
188 190
188 192
188 193
188 194
189 195
189 197
190 191
190 192
190 194
190 198
191 192
191 195
195 198
196 198
197 198
